c smth
s vc 200 138
200
199
198
197
195
193
192
191
189
187
186
183
182
181
178
177
175
174
173
170
169
168
166
165
163
162
161
156
154
152
150
149
148
147
146
145
143
142
141
138
137
136
134
133
132
131
130
129
128
127
125
124
123
122
119
118
117
116
115
114
113
111
110
109
107
106
105
104
103
101
99
96
93
92
91
90
89
88
87
86
82
80
78
77
76
75
74
73
72
70
69
68
66
65
64
61
60
59
58
56
54
51
50
48
47
46
45
44
43
41
40
39
36
35
34
33
32
30
29
28
26
25
24
23
21
20
18
17
16
14
12
11
9
7
6
4
3
2